11
2147483647 14 48 14 30 84 13 93 84 92 40 
14 2147483647 80 61 43 80 26 43 61 25 25 
48 80 2147483647 82 57 55 100 4 97 90 92 
14 61 82 2147483647 66 5 67 59 100 87 12 
30 43 57 66 2147483647 25 7 91 39 16 83 
84 80 55 5 25 2147483647 79 80 7 21 60 
13 26 100 67 7 79 2147483647 49 99 25 73 
93 43 4 59 91 80 49 2147483647 10 61 100 
84 61 97 100 39 7 99 10 2147483647 61 20 
92 25 90 87 16 21 25 61 61 2147483647 6 
40 25 92 12 83 60 73 100 20 6 2147483647 
